p tw 41 93
1 30
1 31
1 5
1 3
2 19
2 27
2 6
2 14
3 30
3 27
3 16
4 12
4 35
4 28
4 22
5 31
5 38
5 11
6 30
6 19
6 7
7 30
7 32
7 13
8 15
8 25
8 10
8 24
9 33
9 20
9 12
9 10
10 25
10 20
11 39
11 38
11 23
12 33
12 34
12 28
12 13
13 34
13 32
14 25
14 20
14 27
15 24
15 40
15 16
16 27
16 40
17 36
17 34
17 26
17 18
18 26
18 21
18 29
19 37
19 20
20 37
20 25
21 29
21 22
21 23
22 35
22 23
23 39
23 29
24 25
24 28
25 28
26 27
26 28
27 32
27 28
29 38
30 31
30 32
31 32
33 34
33 35
34 36
34 35
36 37
36 41
37 41
38 41
38 39
38 40
39 40
39 41
40 41
